INCAR
 ENCUT = 450.000000
 SIGMA = 0.200000
 POTIM = 0.340000
 EDIFF = 1.00e-06
 EDIFFG = -2.00e-02
 GGA = PE
 ALGO = FAST
 ISYM = 0
 NCORE = 24
 NELMIN = 8
 NELM = 80
 INIWAV = 1
 IDIPOL = 3
 LCHARG = .TRUE.
 LWAVE = .FALSE.
 LDIPOL = .TRUE.
 IBRION = 1 
 NSW = 0
 LAECHG =.TRUE. 
