Automatic Mesh 
0
Monkhorst Pack 
20 20 20
0  0  0
