'pw' fcc
4.00
1.0 0.0 0.0
0.0 1.0 0.0
0.0 0.0 1.0
4
direct
0.0 0.0 0.0
0.0 0.5 0.5
0.5 0.0 0.5
0.5 0.5 0.0                   
